
Gurobi 9.5.2 (mac64[arm]) logging started Wed Apr 19 13:58:59 2023

Set parameter LogFile to value "Java/output/pure_mip/scenario_seed_2_nJob_40_machineCount_1/mip_increment_5/log.txt"
Gurobi Optimizer version 9.5.2 build v9.5.2rc0 (mac64[arm])
Thread count: 8 physical cores, 8 logical processors, using up to 8 threads
Optimize a model with 538 rows, 6726 columns and 27275 nonzeros
Model fingerprint: 0xa595aa32
Variable types: 0 continuous, 6726 integer (6726 binary)
Coefficient statistics:
  Matrix range     [1e+00, 3e+02]
  Objective range  [2e+00, 8e+06]
  Bounds range     [1e+00, 1e+00]
  RHS range        [1e+00, 1e+00]
Found heuristic solution: objective 3.660773e+07
Presolve removed 10 rows and 565 columns
Presolve time: 0.04s
Presolved: 528 rows, 6161 columns, 25031 nonzeros
Variable types: 0 continuous, 6161 integer (6161 binary)
Found heuristic solution: objective 3.279475e+07

Root relaxation: objective 1.926175e+04, 4127 iterations, 0.11 seconds (0.19 work units)

    Nodes    |    Current Node    |     Objective Bounds      |     Work
 Expl Unexpl |  Obj  Depth IntInf | Incumbent    BestBd   Gap | It/Node Time

     0     0 19266.8813    0  253 3.2795e+07 19266.8813   100%     -    0s
H    0     0                    2.491558e+07 19266.8813   100%     -    0s
H    0     0                    2.453828e+07 19266.8813   100%     -    0s
H    0     0                    2.189542e+07 19266.8813   100%     -    0s
H    0     0                    1.692958e+07 19266.8813   100%     -    0s
H    0     0                    1.363736e+07 19372.6395   100%     -    0s
H    0     0                    8306774.0000 19372.6395   100%     -    0s
     0     0 19372.6395    0  366 8306774.00 19372.6395   100%     -    0s
H    0     0                    8306754.0000 19372.6395   100%     -    0s
H    0     0                    5804454.0000 19372.6395   100%     -    0s
     0     0 19379.3330    0  369 5804454.00 19379.3330   100%     -    0s
     0     0 19379.3330    0  369 5804454.00 19379.3330   100%     -    0s
     0     0 19439.2364    0  370 5804454.00 19439.2364   100%     -    0s
H    0     0                    5804449.0000 19439.2364   100%     -    0s
     0     0 19441.0586    0  370 5804449.00 19441.0586   100%     -    0s
     0     0 19443.6243    0  366 5804449.00 19443.6243   100%     -    0s
     0     0 19445.1103    0  350 5804449.00 19445.1103   100%     -    0s
     0     0 19445.1103    0  355 5804449.00 19445.1103   100%     -    0s
     0     0 19458.5747    0  417 5804449.00 19458.5747   100%     -    0s
H    0     0                    5457909.0000 19458.5747   100%     -    0s
     0     0 19463.1600    0  450 5457909.00 19463.1600   100%     -    0s
     0     0 19463.8513    0  457 5457909.00 19463.8513   100%     -    0s
     0     0 19464.5153    0  445 5457909.00 19464.5153   100%     -    0s
     0     0 19464.8454    0  440 5457909.00 19464.8454   100%     -    1s
     0     0 19464.8663    0  449 5457909.00 19464.8663   100%     -    1s
     0     0 19486.1834    0  456 5457909.00 19486.1834   100%     -    1s
H    0     0                    5457904.0000 19486.1834   100%     -    1s
     0     0 19491.2181    0  477 5457904.00 19491.2181   100%     -    1s
     0     0 19492.2887    0  482 5457904.00 19492.2887   100%     -    1s
     0     0 19492.3127    0  484 5457904.00 19492.3127   100%     -    1s
H    0     0                    3667839.0000 19724.1019  99.5%     -    1s
H    0     0                    3592904.0000 19724.1019  99.5%     -    1s
     0     0 19724.1019    0  437 3592904.00 19724.1019  99.5%     -    1s
H    0     0                    3592849.0000 19724.1019  99.5%     -    1s
     0     0 19761.8219    0  438 3592849.00 19761.8219  99.4%     -    1s
H    0     0                    1795414.0000 19770.2970  98.9%     -    2s
     0     0 19770.2970    0  452 1795414.00 19770.2970  98.9%     -    2s
     0     0 19770.6688    0  436 1795414.00 19770.6688  98.9%     -    2s
H    0     0                    1795334.0000 20710.2520  98.8%     -    2s
H    0     0                    1795024.0000 20710.2520  98.8%     -    2s
H    0     0                    1794969.0000 20710.2520  98.8%     -    2s
     0     0 20710.2520    0  447 1794969.00 20710.2520  98.8%     -    2s
     0     0 20735.6466    0  464 1794969.00 20735.6466  98.8%     -    2s
H    0     0                    551839.00000 20741.1304  96.2%     -    2s
     0     0 20741.1304    0  446 551839.000 20741.1304  96.2%     -    2s
     0     0 20741.4417    0  446 551839.000 20741.4417  96.2%     -    2s
H    0     0                    551749.00000 21782.3535  96.1%     -    3s
     0     0 21782.3535    0  471 551749.000 21782.3535  96.1%     -    3s
H    0     0                    551554.00000 21782.3535  96.1%     -    3s
H    0     0                    367989.00000 21845.4022  94.1%     -    3s
H    0     0                    367904.00000 21845.4022  94.1%     -    3s
H    0     0                    367874.00000 21845.4022  94.1%     -    3s
     0     0 21845.4022    0  486 367874.000 21845.4022  94.1%     -    3s
     0     0 21862.5102    0  479 367874.000 21862.5102  94.1%     -    3s
     0     0 21863.4781    0  501 367874.000 21863.4781  94.1%     -    3s
H    0     0                    367869.00000 23588.2878  93.6%     -    3s
     0     0 23588.2878    0  486 367869.000 23588.2878  93.6%     -    3s
H    0     0                    307789.00000 23588.2878  92.3%     -    3s
     0     0 23625.6471    0  509 307789.000 23625.6471  92.3%     -    4s
     0     0 23630.3459    0  519 307789.000 23630.3459  92.3%     -    4s
     0     0 24687.5303    0  490 307789.000 24687.5303  92.0%     -    4s
H    0     0                    233759.00000 24687.5303  89.4%     -    4s
H    0     0                    219144.00000 24819.5921  88.7%     -    5s
H    0     0                    218309.00000 24819.5921  88.6%     -    5s
     0     0 24819.5921    0  513 218309.000 24819.5921  88.6%     -    5s
H    0     0                    168554.00000 24829.4192  85.3%     -    5s
H    0     0                    168209.00000 24829.4192  85.2%     -    5s
     0     0 24829.4192    0  531 168209.000 24829.4192  85.2%     -    5s
H    0     0                    168184.00000 24830.1356  85.2%     -    5s
     0     0 24830.1356    0  541 168184.000 24830.1356  85.2%     -    5s
H    0     0                    168164.00000 27431.3659  83.7%     -    5s
H    0     0                    168104.00000 27431.3659  83.7%     -    5s
H    0     0                    76904.000000 27431.3659  64.3%     -    5s
H    0     0                    76899.000000 27431.3659  64.3%     -    5s
H    0     0                    76879.000000 27431.3659  64.3%     -    5s
     0     0 27431.3668    0  500 76879.0000 27431.3668  64.3%     -    5s
     0     0 27460.8551    0  532 76879.0000 27460.8551  64.3%     -    5s
     0     0 27467.1844    0  558 76879.0000 27467.1844  64.3%     -    6s
H    0     0                    76844.000000 33107.0879  56.9%     -    6s
     0     0 33107.0879    0  525 76844.0000 33107.0879  56.9%     -    6s
H    0     0                    76839.000000 33107.0879  56.9%     -    6s
H    0     0                    76834.000000 33107.0879  56.9%     -    6s
H    0     0                    76829.000000 33125.4507  56.9%     -    6s
     0     0 33125.4507    0  521 76829.0000 33125.4507  56.9%     -    6s
     0     0 33357.7859    0  492 76829.0000 33357.7859  56.6%     -    7s
     0     0 33357.7859    0  236 76829.0000 33357.7859  56.6%     -    7s
H    0     0                    76824.000000 33357.7859  56.6%     -    7s
     0     0 33357.7859    0  411 76824.0000 33357.7859  56.6%     -    7s
     0     0 33357.7859    0  425 76824.0000 33357.7859  56.6%     -    7s
     0     0 35542.1293    0  457 76824.0000 35542.1293  53.7%     -    7s
     0     0 35634.5782    0  470 76824.0000 35634.5782  53.6%     -    7s
     0     0 35676.6396    0  474 76824.0000 35676.6396  53.6%     -    8s
     0     0 35678.4079    0  473 76824.0000 35678.4079  53.6%     -    8s
     0     0 35678.9350    0  488 76824.0000 35678.9350  53.6%     -    8s
     0     0 35679.1759    0  486 76824.0000 35679.1759  53.6%     -    8s
     0     0 35679.1759    0  486 76824.0000 35679.1759  53.6%     -    8s
H    0     0                    76819.000000 35679.1759  53.6%     -    8s
     0     0 36283.7030    0  496 76819.0000 36283.7030  52.8%     -    8s
H    0     0                    74264.000000 36283.7030  51.1%     -    8s
     0     0 36309.8655    0  497 74264.0000 36309.8655  51.1%     -    8s
     0     0 36316.7239    0  498 74264.0000 36316.7239  51.1%     -    8s
     0     0 39393.2606    0  520 74264.0000 39393.2606  47.0%     -    8s
     0     0 39416.4748    0  519 74264.0000 39416.4748  46.9%     -    9s
H    0     0                    74259.000000 39416.4748  46.9%     -    9s
     0     0 43308.2746    0  474 74259.0000 43308.2746  41.7%     -    9s
H    0     0                    74159.000000 43308.2746  41.6%     -    9s
     0     0 44238.2284    0  486 74159.0000 44238.2284  40.3%     -    9s
H    0     0                    71519.000000 44238.2284  38.1%     -    9s
     0     0 44242.7883    0  473 71519.0000 44242.7883  38.1%     -    9s
     0     0 44268.3220    0  478 71519.0000 44268.3220  38.1%     -    9s
     0     0 44271.4180    0  492 71519.0000 44271.4180  38.1%     -    9s
     0     0 44283.2529    0  487 71519.0000 44283.2529  38.1%     -   10s
     0     0 44283.2529    0  483 71519.0000 44283.2529  38.1%     -   10s
H    0     0                    45139.000000 44283.2529  1.90%     -   10s
H    0     0                    44599.000000 44284.5726  0.71%     -   10s
H    0     0                    44549.000000 44284.5726  0.59%     -   10s
     0     0 44284.5726    0  246 44549.0000 44284.5726  0.59%     -   10s
H    0     0                    44504.000000 44284.5726  0.49%     -   10s
H    0     0                    44494.000000 44284.5726  0.47%     -   10s
     0     0 44284.5726    0  397 44494.0000 44284.5726  0.47%     -   10s
H    0     0                    44489.000000 44284.5726  0.46%     -   10s
     0     0 44284.5726    0  431 44489.0000 44284.5726  0.46%     -   10s
     0     0 44284.5726    0  431 44489.0000 44284.5726  0.46%     -   10s
     0     0 44284.8295    0  460 44489.0000 44284.8295  0.46%     -   10s
     0     0 44287.6420    0  444 44489.0000 44287.6420  0.45%     -   10s
     0     0 44289.0498    0  449 44489.0000 44289.0498  0.45%     -   10s
     0     0 44289.4085    0  442 44489.0000 44289.4085  0.45%     -   10s
     0     0 44289.4555    0  435 44489.0000 44289.4555  0.45%     -   10s
     0     0 44297.8279    0  468 44489.0000 44297.8279  0.43%     -   11s
     0     0 44299.7138    0  464 44489.0000 44299.7138  0.43%     -   11s
     0     0 44299.8708    0  478 44489.0000 44299.8708  0.43%     -   11s
     0     0 44304.5190    0  493 44489.0000 44304.5190  0.41%     -   11s
H    0     0                    44484.000000 44304.5190  0.40%     -   11s
     0     0 44305.1441    0  504 44484.0000 44305.1441  0.40%     -   11s
     0     0 44306.2021    0  512 44484.0000 44306.2021  0.40%     -   11s
     0     0 44306.2021    0  499 44484.0000 44306.2021  0.40%     -   11s
     0     2 44306.2594    0  499 44484.0000 44306.2594  0.40%     -   11s
H   70    63                    44479.000000 44343.8489  0.30%   509   12s
H  102    86                    44474.000000 44343.8489  0.29%   433   12s
H  116    90                    44469.000000 44343.8489  0.28%   409   12s
H  150   108                    44464.000000 44343.8489  0.27%   383   12s
H  281   183                    44459.000000 44343.8489  0.26%   313   13s
H  435   266                    44454.000000 44359.3959  0.21%   274   13s
H  707   363                    44449.000000 44375.6868  0.16%   239   14s
  1071   445 44448.2779   11  350 44449.0000 44385.2975  0.14%   203   15s
  3035  1229 44444.6535   26  552 44449.0000 44402.5792  0.10%   141   20s
  3164  1236     cutoff   21      44449.0000 44402.5792  0.10%   157   25s
* 3349  1195              37    44444.000000 44402.5792  0.09%   158   26s

Cutting planes:
  Gomory: 3
  Cover: 14
  Clique: 84
  MIR: 295
  StrongCG: 121
  Flow cover: 134
  GUB cover: 132
  Zero half: 47
  Mod-K: 2
  RLT: 7

Explored 3738 nodes (689294 simplex iterations) in 27.18 seconds (52.67 work units)
Thread count was 8 (of 8 available processors)

Solution count 10: 44444 44449 44454 ... 44489

Optimal solution found (tolerance 1.00e-04)
Best objective 4.444400000000e+04, best bound 4.444400000000e+04, gap 0.0000%
